nServices=10;
nDrivers=10;
nBuses=10;
startingTime=[11 165 3 56 63 165 15 158 186 160];
durationTime=[15 16 25 21 11 25 18 18 26 12];
durationDist=[41 46 60 57 29 55 27 36 57 40];
passangers=[9 17 18 16 4 11 7 10 18 4];
capacity=[23 13 17 24 28 15 20 26 13 11];
costTime=[6 10 6 7 9 8 8 8 10 10];
costDist=[3 2 3 3 5 2 6 2 6 4];
maxTime=[45 43 55 56 58 29 60 37 25 44];
costBM=[8 5 7 8 5 6 7 7 7 6];
costEM=[8 9 9 11 10 8 9 8 11 12];
BM=[13 16 20 10 20 12 14 20 20 12];
